n = 12;

R =
[|0,0,0,0,0,0,0,0,3,0,1,0,
 |0,0,0,0,0,0,4,0,3,0,0,0,
 |0,0,0,0,0,0,4,0,3,0,0,0,
 |0,4,4,4,4,0,4,0,0,0,0,0,
 |0,0,0,0,0,0,4,0,0,0,0,0,
 |1,5,5,5,5,5,0,0,0,0,0,0,
 |0,0,0,0,0,0,0,0,0,0,0,0,
 |0,0,0,2,0,5,5,5,5,5,0,0,
 |3,0,0,2,6,6,6,6,6,6,0,0,
 |3,0,0,0,0,0,0,0,0,0,0,0,
 |3,0,1,0,0,0,0,0,0,0,0,0,
 |0,4,4,4,4,0,0,0,0,0,0,0,
 |];

